results_rootrelaxation/bin012_080_039.srr.sol
solution status: optimal solution found
objective value:                     17.4383561643836
_var323_                           0.0410958904109596 	(obj:1)
_var714_                            0.205479452054795 	(obj:1)
_var722_                            0.232876712328767 	(obj:1)
_var744_                            0.712328767123287 	(obj:0)
_var752_                            0.520547945205478 	(obj:1)
_var770_                            0.232876712328767 	(obj:2)
_var786_                            0.479452054794521 	(obj:2)
_var789_                            0.178082191780821 	(obj:2)
_var794_                            0.123287671232877 	(obj:2)
_var797_                            0.178082191780822 	(obj:2)
_var811_                            0.232876712328767 	(obj:1)
_var831_                           0.0547945205479444 	(obj:2)
_var833_                             0.26027397260274 	(obj:2)
_var834_                            0.712328767123288 	(obj:1)
_var835_                            0.287671232876713 	(obj:1)
_var840_                           0.0136986301369859 	(obj:2)
_var853_                            0.273972602739726 	(obj:2)
_var859_                            0.356164383561644 	(obj:2)
_var862_                            0.369863013698631 	(obj:2)
_var863_                           0.0547945205479452 	(obj:2)
_var870_                            0.246575342465754 	(obj:2)
_var872_                            0.123287671232877 	(obj:2)
_var873_                           0.0547945205479455 	(obj:1)
_var875_                            0.232876712328766 	(obj:2)
_var880_                            0.287671232876712 	(obj:2)
_var886_                            0.232876712328766 	(obj:3)
_var888_                            0.178082191780822 	(obj:2)
_var890_                           0.0273972602739719 	(obj:1)
_var891_                            0.424657534246575 	(obj:3)
_var894_                            0.164383561643836 	(obj:1)
_var901_                            0.438356164383562 	(obj:1)
_var902_                           0.0547945205479452 	(obj:4)
_var904_                            0.301369863013699 	(obj:2)
_var909_                            0.136986301369864 	(obj:2)
_var910_                           0.0547945205479452 	(obj:1)
_var913_                            0.164383561643835 	(obj:2)
_var917_                           0.0547945205479463 	(obj:2)
_var920_                            0.232876712328767 	(obj:2)
_var924_                            0.397260273972603 	(obj:1)
_var933_                           0.0273972602739729 	(obj:2)
_var935_                            0.328767123287671 	(obj:1)
_var938_                             0.15068493150685 	(obj:3)
_var942_                           0.0547945205479452 	(obj:2)
_var943_                            0.287671232876712 	(obj:1)
_var944_                            0.287671232876712 	(obj:2)
_var946_                           0.0410958904109587 	(obj:1)
_var947_                           0.0547945205479452 	(obj:2)
_var950_                           0.0136986301369868 	(obj:2)
_var953_                            0.150684931506849 	(obj:3)
_var960_                           0.0410958904109582 	(obj:2)
_var962_                           0.0547945205479455 	(obj:1)
_var963_                           0.0410958904109591 	(obj:1)
_var964_                           0.0547945205479452 	(obj:2)
_var965_                           0.0821917808219175 	(obj:1)
