results_rootrelaxation/bin012_080_039.srr.log
SCIP version 8.0.3.5 [precision: 8 byte] [memory: block] [mode: optimized] [LP solver: Soplex 6.0.1.3] [GitHash: 438792519e]
Copyright (c) 2002-2023 Zuse Institute Berlin (ZIB)

External libraries: 
  Readline 8.1         GNU library for command line editing (gnu.org/s/readline)
  Soplex 6.0.1.3       Linear Programming Solver developed at Zuse Institute Berlin (soplex.zib.de) [GitHash: 713be0fe]
  CppAD 20180000.0     Algorithmic Differentiation of C++ algorithms developed by B. Bell (github.com/coin-or/CppAD)
  ZLIB 1.2.11          General purpose compression library by J. Gailly and M. Adler (zlib.net)
  bliss 0.77           Computing Graph Automorphism Groups by T. Junttila and P. Kaski (www.tcs.hut.fi/Software/bliss/)

user parameter file <scip.set> not found - using default parameters

srr/relaxation = TRUE

read problem <instances/bin012_080_039.srr>
============

Original problem: 
original problem has 0 variables (0 bin, 0 int, 0 impl, 0 cont) and 77 constraints

presolving:
presolving (1 rounds: 1 fast, 1 medium, 1 exhaustive):
 0 deleted vars, 0 deleted constraints, 0 added constraints, 0 tightened bounds, 0 added holes, 0 changed sides, 0 changed coefficients
 0 implications, 0 cliques
presolved problem has 0 variables (0 bin, 0 int, 0 impl, 0 cont) and 77 constraints
     77 constraints of type <linear>
Presolving Time: 0.00

 time | node  | left  |LP iter|LP it/n|mem/heur|mdpt |vars |cons |rows |cuts |sepa|confs|strbr|  dualbound   | primalbound  |  gap   | compl. 
  0.0s|     1 |     0 |     1 |     - |   710k |   0 |   1 |  77 |  77 |   0 |  0 |   0 |   0 |      --      |      --      |    Inf | unknown
r 0.1s|     1 |     0 |  1018 |     - |simplero|   0 | 686 |  77 |  77 |   0 |  0 |   0 |   0 |      --      | 3.775203e+01 |    Inf | unknown
r 0.1s|     1 |     0 |  1052 |     - |simplero|   0 | 697 |  77 |  77 |   0 |  0 |   0 |   0 |      --      | 3.690478e+01 |    Inf | unknown
r 0.1s|     1 |     0 |  1113 |     - |simplero|   0 | 708 |  77 |  77 |   0 |  0 |   0 |   0 |      --      | 3.391711e+01 |    Inf | unknown
r 0.1s|     1 |     0 |  1179 |     - |simplero|   0 | 719 |  77 |  77 |   0 |  0 |   0 |   0 |      --      | 3.129573e+01 |    Inf | unknown
r 0.1s|     1 |     0 |  1253 |     - |simplero|   0 | 730 |  77 |  77 |   0 |  0 |   0 |   0 |      --      | 2.880889e+01 |    Inf | unknown
r 0.1s|     1 |     0 |  1319 |     - |simplero|   0 | 741 |  77 |  77 |   0 |  0 |   0 |   0 |      --      | 2.674049e+01 |    Inf | unknown
r 0.1s|     1 |     0 |  1378 |     - |simplero|   0 | 752 |  77 |  77 |   0 |  0 |   0 |   0 |      --      | 2.567590e+01 |    Inf | unknown
r 0.1s|     1 |     0 |  1417 |     - |simplero|   0 | 763 |  77 |  77 |   0 |  0 |   0 |   0 |      --      | 2.416531e+01 |    Inf | unknown
r 0.1s|     1 |     0 |  1428 |     - |simplero|   0 | 763 |  77 |  77 |   0 |  0 |   0 |   0 |      --      | 2.412679e+01 |    Inf | unknown
r 0.1s|     1 |     0 |  1487 |     - |simplero|   0 | 774 |  77 |  77 |   0 |  0 |   0 |   0 |      --      | 2.305635e+01 |    Inf | unknown
r 0.1s|     1 |     0 |  1503 |     - |simplero|   0 | 774 |  77 |  77 |   0 |  0 |   0 |   0 |      --      | 2.296029e+01 |    Inf | unknown
r 0.1s|     1 |     0 |  1506 |     - |simplero|   0 | 774 |  77 |  77 |   0 |  0 |   0 |   0 |      --      | 2.295730e+01 |    Inf | unknown
r 0.1s|     1 |     0 |  1547 |     - |simplero|   0 | 785 |  77 |  77 |   0 |  0 |   0 |   0 |      --      | 2.209145e+01 |    Inf | unknown
r 0.1s|     1 |     0 |  1555 |     - |simplero|   0 | 785 |  77 |  77 |   0 |  0 |   0 |   0 |      --      | 2.206978e+01 |    Inf | unknown
 time | node  | left  |LP iter|LP it/n|mem/heur|mdpt |vars |cons |rows |cuts |sepa|confs|strbr|  dualbound   | primalbound  |  gap   | compl. 
r 0.1s|     1 |     0 |  1562 |     - |simplero|   0 | 785 |  77 |  77 |   0 |  0 |   0 |   0 |      --      | 2.206709e+01 |    Inf | unknown
r 0.1s|     1 |     0 |  1594 |     - |simplero|   0 | 796 |  77 |  77 |   0 |  0 |   0 |   0 |      --      | 2.149839e+01 |    Inf | unknown
r 0.1s|     1 |     0 |  1611 |     - |simplero|   0 | 796 |  77 |  77 |   0 |  0 |   0 |   0 |      --      | 2.138573e+01 |    Inf | unknown
r 0.1s|     1 |     0 |  1644 |     - |simplero|   0 | 807 |  77 |  77 |   0 |  0 |   0 |   0 |      --      | 2.101454e+01 |    Inf | unknown
r 0.1s|     1 |     0 |  1663 |     - |simplero|   0 | 807 |  77 |  77 |   0 |  0 |   0 |   0 |      --      | 2.098791e+01 |    Inf | unknown
r 0.1s|     1 |     0 |  1696 |     - |simplero|   0 | 818 |  77 |  77 |   0 |  0 |   0 |   0 |      --      | 2.067652e+01 |    Inf | unknown
r 0.1s|     1 |     0 |  1707 |     - |simplero|   0 | 818 |  77 |  77 |   0 |  0 |   0 |   0 |      --      | 2.060570e+01 |    Inf | unknown
r 0.1s|     1 |     0 |  1737 |     - |simplero|   0 | 829 |  77 |  77 |   0 |  0 |   0 |   0 |      --      | 2.026341e+01 |    Inf | unknown
r 0.1s|     1 |     0 |  1748 |     - |simplero|   0 | 829 |  77 |  77 |   0 |  0 |   0 |   0 |      --      | 2.021847e+01 |    Inf | unknown
r 0.1s|     1 |     0 |  1784 |     - |simplero|   0 | 840 |  77 |  77 |   0 |  0 |   0 |   0 |      --      | 1.978638e+01 |    Inf | unknown
r 0.1s|     1 |     0 |  1801 |     - |simplero|   0 | 840 |  77 |  77 |   0 |  0 |   0 |   0 |      --      | 1.974135e+01 |    Inf | unknown
r 0.1s|     1 |     0 |  1850 |     - |simplero|   0 | 851 |  77 |  77 |   0 |  0 |   0 |   0 |      --      | 1.926834e+01 |    Inf | unknown
r 0.1s|     1 |     0 |  1859 |     - |simplero|   0 | 851 |  77 |  77 |   0 |  0 |   0 |   0 |      --      | 1.919849e+01 |    Inf | unknown
r 0.1s|     1 |     0 |  1900 |     - |simplero|   0 | 862 |  77 |  77 |   0 |  0 |   0 |   0 |      --      | 1.880678e+01 |    Inf | unknown
r 0.1s|     1 |     0 |  1917 |     - |simplero|   0 | 862 |  77 |  77 |   0 |  0 |   0 |   0 |      --      | 1.876832e+01 |    Inf | unknown
 time | node  | left  |LP iter|LP it/n|mem/heur|mdpt |vars |cons |rows |cuts |sepa|confs|strbr|  dualbound   | primalbound  |  gap   | compl. 
r 0.1s|     1 |     0 |  1921 |     - |simplero|   0 | 862 |  77 |  77 |   0 |  0 |   0 |   0 |      --      | 1.876622e+01 |    Inf | unknown
r 0.1s|     1 |     0 |  1943 |     - |simplero|   0 | 873 |  77 |  77 |   0 |  0 |   0 |   0 |      --      | 1.848770e+01 |    Inf | unknown
  0.1s|     1 |     0 |  1944 |     - |  4121k |   0 | 873 |  77 |  77 |   0 |  0 |   0 |   0 |      --      | 1.848770e+01 |    Inf | unknown
r 0.1s|     1 |     0 |  1944 |     - |simplero|   0 | 873 |  77 |  77 |   0 |  0 |   0 |   0 |      --      | 1.848697e+01 |    Inf | unknown
r 0.1s|     1 |     0 |  1945 |     - |simplero|   0 | 873 |  77 |  77 |   0 |  0 |   0 |   0 |      --      | 1.848692e+01 |    Inf | unknown
r 0.1s|     1 |     0 |  1972 |     - |simplero|   0 | 884 |  77 |  77 |   0 |  0 |   0 |   0 |      --      | 1.828476e+01 |    Inf | unknown
r 0.1s|     1 |     0 |  1989 |     - |simplero|   0 | 884 |  77 |  77 |   0 |  0 |   0 |   0 |      --      | 1.824488e+01 |    Inf | unknown
r 0.1s|     1 |     0 |  2021 |     - |simplero|   0 | 895 |  77 |  77 |   0 |  0 |   0 |   0 |      --      | 1.801803e+01 |    Inf | unknown
r 0.1s|     1 |     0 |  2030 |     - |simplero|   0 | 895 |  77 |  77 |   0 |  0 |   0 |   0 |      --      | 1.800952e+01 |    Inf | unknown
r 0.1s|     1 |     0 |  2033 |     - |simplero|   0 | 895 |  77 |  77 |   0 |  0 |   0 |   0 |      --      | 1.800611e+01 |    Inf | unknown
r 0.1s|     1 |     0 |  2034 |     - |simplero|   0 | 895 |  77 |  77 |   0 |  0 |   0 |   0 |      --      | 1.800583e+01 |    Inf | unknown
r 0.1s|     1 |     0 |  2065 |     - |simplero|   0 | 906 |  77 |  77 |   0 |  0 |   0 |   0 |      --      | 1.782552e+01 |    Inf | unknown
r 0.1s|     1 |     0 |  2099 |     - |simplero|   0 | 916 |  77 |  77 |   0 |  0 |   0 |   0 |      --      | 1.772873e+01 |    Inf | unknown
r 0.1s|     1 |     0 |  2119 |     - |simplero|   0 | 926 |  77 |  77 |   0 |  0 |   0 |   0 |      --      | 1.760643e+01 |    Inf | unknown
r 0.1s|     1 |     0 |  2136 |     - |simplero|   0 | 936 |  77 |  77 |   0 |  0 |   0 |   0 |      --      | 1.750000e+01 |    Inf | unknown
 time | node  | left  |LP iter|LP it/n|mem/heur|mdpt |vars |cons |rows |cuts |sepa|confs|strbr|  dualbound   | primalbound  |  gap   | compl. 
r 0.1s|     1 |     0 |  2189 |     - |simplero|   0 | 948 |  77 |  77 |   0 |  0 |   0 |   0 |      --      | 1.748148e+01 |    Inf | unknown
r 0.1s|     1 |     0 |  2204 |     - |simplero|   0 | 956 |  77 |  77 |   0 |  0 |   0 |   0 |      --      | 1.745455e+01 |    Inf | unknown
r 0.1s|     1 |     0 |  2221 |     - |simplero|   0 | 961 |  77 |  77 |   0 |  0 |   0 |   0 |      --      | 1.744882e+01 |    Inf | unknown
r 0.1s|     1 |     0 |  2242 |     - |simplero|   0 | 966 |  77 |  77 |   0 |  0 |   0 |   0 |      --      | 1.743836e+01 |    Inf | unknown
  0.1s|     1 |     0 |  2243 |     - |  4645k |   0 | 967 |  77 |  77 |   0 |  0 |   0 |   0 | 1.743836e+01 | 1.743836e+01 |   0.00%| unknown
  0.1s|     1 |     0 |  2243 |     - |  4645k |   0 | 967 |  77 |  77 |   0 |  0 |   0 |   0 | 1.743836e+01 | 1.743836e+01 |   0.00%| unknown

SCIP Status        : problem is solved [optimal solution found]
Solving Time (sec) : 0.12
Solving Nodes      : 1
Primal Bound       : +1.74383561643836e+01 (47 solutions)
Dual Bound         : +1.74383561643836e+01
Gap                : 0.00 %

written transformed problem to file <results_rootrelaxation/bin012_080_039.srr.lp>
written transformed problem to file <results_rootrelaxation/bin012_080_039.srr.cip>

written solution information to file <results_rootrelaxation/bin012_080_039.srr.sol>



